(set-info :smt-lib-version 2.6)
(set-logic QF_LIA)
(set-info :category "industrial")
(set-info :status sat)
(declare-fun x0 () Int)
(declare-fun x1 () Int)
(declare-fun x10 () Int)
(declare-fun x11 () Int)
(declare-fun x12 () Int)
(declare-fun x13 () Int)
(declare-fun x14 () Int)
(declare-fun x15 () Int)
(declare-fun x16 () Int)
(declare-fun x17 () Int)
(declare-fun x18 () Int)
(declare-fun x19 () Int)
(declare-fun x2 () Int)
(declare-fun x20 () Int)
(declare-fun x21 () Int)
(declare-fun x22 () Int)
(declare-fun x23 () Int)
(declare-fun x24 () Int)
(declare-fun x3 () Int)
(declare-fun x4 () Int)
(declare-fun x5 () Int)
(declare-fun x6 () Int)
(declare-fun x7 () Int)
(declare-fun x8 () Int)
(declare-fun x9 () Int)
(assert (let ((?v_8 (* 0 x10)) (?v_50 (* 0 x12)) (?v_0 (* 0 x13)) (?v_4 (* 1 x2)) (?v_30 (* 0 x21)) (?v_35 (* 0 x22)) (?v_10 (* 0 x23)) (?v_1 (* 0 x4)) (?v_2 (* 0 x6)) (?v_28 (* 0 x14)) (?v_14 (* 1 x16)) (?v_41 (* 0 x18)) (?v_42 (* 0 x19)) (?v_36 (* 1 x21)) (?v_5 (* 1 x22)) (?v_56 (* 1 x23)) (?v_21 (* 0 x3)) (?v_11 (* 0 x5)) (?v_7 (* 0 x8)) (?v_54 (* 0 x17)) (?v_13 (* 1 x12)) (?v_15 (* 0 x24)) (?v_12 (* 0 x9)) (?v_38 (* 1 x3)) (?v_22 (* 1 x5)) (?v_66 (* 1 x1)) (?v_20 (* 1 x15)) (?v_46 (* 2 x17)) (?v_48 (* 0 x1)) (?v_25 (* 1 x10)) (?v_24 (* 1 x14)) (?v_34 (* 0 x2)) (?v_23 (* 0 x20)) (?v_69 (* 1 x13)) (?v_51 (* 1 x18)) (?v_32 (* 0 x0)) (?v_33 (* 0 x15)) (?v_37 (* 0 x7)) (?v_31 (* 1 x24)) (?v_45 (* 0 x11)) (?v_61 (* 0 x16)) (?v_55 (* 1 x19)) (?v_49 (* 1 x11)) (?v_58 (* 1 x8)) (?v_62 (* 1 x17)) (?v_63 (* 1 x4)) (?v_57 (* 1 x7)) (?v_52 (* 1 x20)) (?v_53 (* 1 x9)) (?v_67 (* 1 x6)) (?v_76 (* 2 x15))) (let ((?v_77 (+ ?v_31 ?v_63)) (?v_73 (* 1 x0)) (?v_18 (* (- 1) x19)) (?v_27 (* (- 1) x15)) (?v_3 (* (- 1) x1)) (?v_17 (* (- 1) x17)) (?v_29 (* (- 1) x2)) (?v_6 (* (- 1) x7)) (?v_43 (* (- 1) x16)) (?v_19 (* (- 1) x23)) (?v_9 (* (- 1) x18)) (?v_40 (* (- 1) x6)) (?v_16 (* (- 1) x0)) (?v_44 (* (- 1) x8)) (?v_68 (* (- 1) x11)) (?v_60 (* (- 1) x12)) (?v_26 (* (- 1) x13)) (?v_72 (* (- 1) x9)) (?v_71 (* (- 1) x4)) (?v_39 (* (- 1) x3)) (?v_47 (* (- 1) x10)) (?v_64 (* (- 1) x5)) (?v_59 (* (- 1) x14)) (?v_65 (* (- 1) x21)) (?v_70 (* (- 2) x0)) (?v_74 (* (- 1) x20)) (?v_75 (* (- 1) x22))) (and (<= (+ (* (- 2) x1) (+ ?v_18 (+ ?v_8 (+ ?v_27 (+ ?v_50 (+ ?v_0 (+ ?v_4 (+ ?v_30 (+ ?v_35 (+ ?v_10 (+ ?v_1 ?v_2))))))))))) 1) (<= (+ ?v_3 (+ ?v_28 (+ ?v_14 (+ ?v_17 (+ ?v_29 (+ ?v_41 (+ ?v_42 (+ ?v_36 (+ ?v_5 (+ ?v_56 (+ (* (- 2) x24) (+ ?v_6 (+ ?v_0 (+ ?v_21 (+ ?v_1 (+ ?v_11 (+ ?v_2 ?v_7))))))))))))))))) 0) (<= (+ (* (- 3) x0) (+ ?v_3 (+ ?v_43 (+ ?v_19 (+ ?v_54 (+ ?v_9 (+ ?v_4 (+ ?v_5 (+ (* 3 x4) (+ ?v_40 (+ ?v_6 (+ ?v_13 (+ ?v_15 (+ ?v_7 (+ ?v_12 (+ ?v_38 ?v_22)))))))))))))))) 0) (<= (+ (* (- 2) x19) (+ ?v_16 (+ ?v_8 (+ ?v_9 (+ ?v_10 (+ ?v_44 (+ ?v_11 (+ ?v_2 (+ ?v_12 (+ ?v_66 (+ ?v_13 (+ ?v_20 (+ ?v_14 (+ ?v_46 ?v_15)))))))))))))) 1) (<= (+ ?v_16 (+ ?v_17 (+ ?v_18 (+ ?v_19 (+ ?v_6 (+ ?v_48 (+ ?v_25 (+ ?v_24 (+ ?v_20 (+ ?v_34 (+ ?v_23 (+ ?v_21 (+ ?v_1 (+ ?v_2 (+ ?v_69 (+ ?v_51 ?v_22)))))))))))))))) (- 1)) (<= (+ ?v_68 (+ ?v_60 (+ ?v_32 (+ ?v_26 (+ ?v_33 (+ ?v_23 (+ ?v_10 (+ ?v_1 (+ ?v_72 (+ ?v_24 (+ ?v_4 (+ ?v_2 (+ ?v_37 (+ ?v_31 ?v_22)))))))))))))) (- 1)) (<= (+ ?v_16 (+ ?v_3 (+ ?v_25 (+ ?v_45 (+ ?v_26 (+ ?v_27 (+ ?v_71 (+ ?v_28 (+ ?v_61 (+ ?v_17 (+ ?v_9 (+ ?v_55 (+ ?v_29 (+ ?v_30 (+ ?v_10 (+ ?v_39 (+ ?v_11 (+ ?v_2 (+ ?v_31 (* 2 x9)))))))))))))))))))) (- 1)) (<= (+ (* (- 3) x17) (+ ?v_19 (+ ?v_32 (+ ?v_33 (+ ?v_49 (+ ?v_34 (+ ?v_23 (+ ?v_35 (+ ?v_36 (+ (* (- 1) x24) (+ ?v_0 (+ ?v_1 (+ ?v_37 (+ ?v_12 (+ ?v_38 ?v_58))))))))))))))) 0) (<= (+ ?v_47 (+ (* (- 2) x21) (+ ?v_19 (+ ?v_39 (+ ?v_64 (+ ?v_40 (+ ?v_32 (+ ?v_28 (+ ?v_14 (+ ?v_62 (+ ?v_41 (+ ?v_42 (+ ?v_63 ?v_57))))))))))))) 0) (<= (+ ?v_8 (+ ?v_59 (+ ?v_43 (+ ?v_44 (+ ?v_45 (+ ?v_40 (+ ?v_0 (+ ?v_33 (+ ?v_42 (+ ?v_35 (+ ?v_1 (+ ?v_52 (+ ?v_10 (+ ?v_53 (+ ?v_46 (+ (* 2 x2) ?v_30)))))))))))))))) 1) (<= (+ ?v_47 (+ ?v_43 (+ ?v_17 (+ ?v_18 (+ ?v_32 (+ ?v_48 (+ ?v_49 (+ ?v_50 (+ ?v_35 (+ ?v_10 (+ ?v_1 (+ ?v_51 (+ ?v_52 (+ ?v_38 (+ ?v_22 (+ ?v_67 ?v_53)))))))))))))))) (- 1)) (<= (+ (* (- 2) x4) (+ ?v_8 (+ ?v_27 (+ ?v_43 (+ ?v_32 (+ ?v_45 (+ ?v_50 (+ ?v_0 (+ ?v_24 (+ ?v_54 (+ ?v_55 (+ ?v_23 (+ ?v_56 (+ ?v_38 (+ ?v_11 ?v_37))))))))))))))) 0) (<= (+ ?v_43 (+ ?v_17 (+ ?v_65 (+ ?v_32 (+ ?v_8 (+ ?v_42 (+ ?v_5 (+ ?v_56 (+ ?v_76 (+ ?v_38 (+ ?v_11 (+ ?v_2 (+ ?v_57 (+ ?v_58 (+ ?v_53 (* 2 x13)))))))))))))))) (- 1)) (<= (+ ?v_47 (+ ?v_48 (+ ?v_50 (+ ?v_26 (+ ?v_59 (+ (* 2 x19) (+ ?v_52 (+ ?v_19 (+ ?v_33 (+ ?v_30 (+ ?v_40 (+ ?v_12 (+ ?v_51 (+ (* 2 x4) ?v_22)))))))))))))) 0) (<= (+ ?v_60 (+ ?v_44 (+ ?v_48 (+ ?v_8 (+ ?v_26 (+ ?v_61 (+ ?v_62 (+ ?v_34 (+ ?v_10 (+ ?v_63 (+ ?v_2 (+ ?v_37 (+ ?v_12 (* 3 x3)))))))))))))) 0) (<= (+ ?v_3 (+ ?v_25 (+ ?v_27 (+ ?v_13 (+ ?v_64 (+ ?v_32 (+ ?v_0 (+ ?v_61 (+ ?v_62 (+ ?v_41 (+ ?v_42 (+ ?v_35 (+ ?v_10 (+ ?v_63 (+ ?v_37 (+ ?v_12 (+ ?v_31 ?v_38))))))))))))))))) 1) (<= (+ ?v_8 (+ ?v_65 (+ ?v_19 (+ ?v_32 (+ ?v_50 (+ ?v_66 (+ ?v_0 (+ ?v_28 (+ ?v_33 (+ ?v_14 (+ ?v_54 (+ ?v_42 (+ ?v_34 (+ ?v_23 (+ ?v_21 (+ ?v_63 (+ ?v_11 (+ ?v_7 (+ ?v_31 ?v_67))))))))))))))))))) 0) (<= (+ (* (- 2) x14) (+ ?v_43 (+ (* (- 2) x7) (+ ?v_9 (+ ?v_40 (+ ?v_48 (+ ?v_25 (+ ?v_13 (+ ?v_0 (+ ?v_33 (+ ?v_42 (+ ?v_4 (+ ?v_52 (+ ?v_30 (+ ?v_21 (+ ?v_7 ?v_77)))))))))))))))) (- 1)) (<= (+ ?v_45 (+ ?v_17 (+ ?v_29 (+ ?v_40 (+ ?v_0 (+ ?v_33 (+ ?v_61 (+ ?v_35 (+ ?v_24 (+ ?v_30 (+ ?v_21 (+ ?v_51 (+ ?v_63 (+ ?v_11 (+ ?v_31 (+ ?v_57 ?v_53)))))))))))))))) (- 1)) (<= (+ ?v_43 (+ ?v_18 (+ ?v_73 (+ ?v_66 (+ ?v_49 (+ ?v_0 (+ ?v_24 (+ ?v_20 (+ ?v_34 (+ ?v_30 (+ ?v_1 (+ ?v_2 (+ ?v_51 ?v_31))))))))))))) 1) (<= (+ ?v_70 (+ ?v_47 (+ ?v_49 (+ ?v_60 (+ ?v_17 (+ ?v_74 (+ ?v_0 (+ ?v_41 (+ ?v_55 (+ ?v_34 (+ ?v_30 (+ ?v_35 (+ ?v_1 (+ ?v_56 ?v_15)))))))))))))) (- 1)) (<= (+ ?v_3 (+ (* 2 x10) (+ ?v_68 (+ ?v_27 (+ ?v_75 (+ ?v_61 (+ ?v_54 (+ ?v_29 (+ ?v_40 (+ ?v_6 (+ ?v_41 (+ ?v_23 (+ ?v_10 (+ ?v_13 (+ ?v_15 (+ ?v_11 (+ ?v_69 ?v_38))))))))))))))))) (- 1)) (<= (+ ?v_70 (+ (* (- 2) x11) (+ ?v_71 (+ (* (- 2) x6) (+ ?v_48 (+ ?v_8 (+ ?v_50 (+ ?v_28 (+ ?v_61 (+ ?v_20 (+ (* 2 x21) (+ ?v_15 (+ ?v_37 ?v_69))))))))))))) (- 1)) (<= (+ ?v_9 (+ ?v_19 (+ ?v_6 (+ ?v_44 (+ ?v_32 (+ ?v_48 (+ ?v_8 (+ ?v_50 (+ ?v_28 (+ ?v_23 (+ ?v_20 (+ ?v_14 (+ ?v_54 (+ ?v_15 (+ ?v_21 (+ ?v_1 (+ ?v_11 (+ ?v_12 ?v_69)))))))))))))))))) 0) (<= (+ ?v_68 (+ ?v_28 (+ ?v_33 (+ ?v_29 (+ ?v_23 (+ ?v_35 (+ ?v_19 (+ ?v_72 (+ ?v_41 (+ ?v_21 (+ ?v_11 (+ ?v_73 (+ ?v_63 (+ ?v_57 (+ ?v_58 (+ (* 2 x12) (* 2 x6))))))))))))))))) (- 1)) (<= (+ ?v_3 (+ ?v_68 (+ ?v_29 (+ ?v_74 (+ ?v_19 (+ ?v_40 (+ ?v_50 (+ ?v_33 (+ ?v_11 (+ ?v_12 (+ ?v_73 (+ ?v_24 (+ ?v_62 (+ ?v_5 ?v_15)))))))))))))) 0) (<= (+ (* (- 2) x10) (+ ?v_18 (+ ?v_29 (+ ?v_75 (+ ?v_40 (+ ?v_44 (+ ?v_48 (+ ?v_28 (+ ?v_61 (+ ?v_41 (+ ?v_12 (+ ?v_73 (+ ?v_49 (+ ?v_26 (+ ?v_62 ?v_52))))))))))))))) (- 1)) (<= (+ ?v_18 (+ ?v_74 (+ ?v_32 (+ ?v_48 (+ ?v_49 (+ ?v_41 (+ ?v_37 (+ ?v_12 (+ ?v_13 (+ ?v_11 (+ ?v_69 (+ ?v_14 (+ ?v_76 (+ ?v_62 (+ ?v_4 ?v_77))))))))))))))) 0) (<= (+ ?v_60 (+ ?v_43 (+ ?v_28 (+ ?v_17 (+ ?v_10 (+ ?v_39 (+ ?v_44 (+ ?v_73 (+ ?v_69 (+ ?v_4 (+ ?v_36 (+ ?v_5 (+ ?v_31 (+ ?v_22 ?v_53)))))))))))))) (- 1)) (<= (+ ?v_16 (+ ?v_28 (+ ?v_54 (+ ?v_9 (+ ?v_42 (+ ?v_5 (+ ?v_19 (+ ?v_44 (+ ?v_30 (+ ?v_11 (+ ?v_12 (+ ?v_66 (+ ?v_69 (+ ?v_31 (+ ?v_38 ?v_67))))))))))))))) 0)))))
(check-sat)
(exit)
